28 26 12 54 80 68 76 77 3 81 9 35 34 78 50 
2 21 72 22 41 23 67 39 25 55 57 15 43 42 87 58 
52 7 19 11 64 49 36 47 48 82 18 
31 88 62 63 90 51 33 79 29 24 4 56 75 74 73 40 53 
89 60 83 8 46 45 17 84 5 93 99 96 6 
27 69 1 70 30 20 71 65 66 32 10 
94 95 59 98 100 44 14 38 86 16 61 85 91 37 92 97 13 
